TCS_Benchmarks/redos_fix/regexlib1_output_distinct_256_255_49_0.smt2
(set-logic QF_S)
(declare-const x String)
(assert (str.in.re x (re.inter (re.* (re.union (re.range "\u{00}" "\u{09}") (re.range "\u{0b}" "\u{0c}") (re.range "\u{0e}" "\u{84}") (re.range "\u{86}" "\u{ff}")) )  (re.++ (re.* (re.union (re.range "\u{00}" "\u{09}") (re.range "\u{0b}" "\u{0c}") (re.range "\u{0e}" "\u{84}") (re.range "\u{86}" "\u{ff}")) ) (re.++ (re.opt  (str.to_re "\u{0A}") ) (re.* (re.comp  (re.union  (str.to.re "\u{74}") (re.union  (str.to.re "\u{26}") (re.union  (str.to.re "\u{3b}")  (str.to.re "\u{6c}"))))) ))) (re.* (re.comp  (re.union  (str.to.re "\u{74}") (re.union  (str.to.re "\u{26}") (re.union  (str.to.re "\u{3b}")  (str.to.re "\u{6c}"))))) ) )))
(check-sat)
(get-model)