TCS_Benchmarks/redos_fix/regexlib1_output_distinct_256_255_49_0.txt
.*
(.*)(\n?)([^t&;l]*)
[^t&;l]*